DATASET = "thpack3";
INSTANCE = "088";

WIDTH = 233;
HEIGHT = 220;
LENGTH = 587;

NO_OF_SHAPES = 8;
size = [|
  100,60,40 |
  89,67,34 |
  92,80,38 |
  90,81,24 |
  84,52,38 |
  77,54,46 |
  90,49,33 |
  78,45,27 |
|];

verticality = [|
  0,1,1 |
  0,1,1 |
  0,0,1 |
  0,0,1 |
  0,1,1 |
  1,1,1 |
  0,1,1 |
  0,1,1 |
|];

box_count = [
  14,
  26,
  16,
  29,
  18,
  20,
  16,
  28,
];
